\ Date: 1921.10
\ Cycle: 01
\ Solver: XA

\ objective function 
Maximize
+ 5.0 x
+ 5.0 y

\ constraint
Subject To
g0:  + x + y <= 60.0
gx3:  + x = 3.0
gy3:  + y = 3.0

\ dvar
Bounds

End




\ objective value:   30.0
